c Mesh Graph
c 10 Rows, 10 columns, capacities in range [0, 1000]
p max 102 290
n 1 s
n 102 t
a 1 11 3000
a 1 10 3000
a 1 9 3000
a 1 8 3000
a 1 7 3000
a 1 6 3000
a 1 5 3000
a 1 4 3000
a 1 3 3000
a 1 2 3000
a 2 13 778
a 2 12 887
a 2 21 384
a 3 14 336
a 3 13 794
a 3 12 916
a 4 15 650
a 4 14 493
a 4 13 387
a 5 16 28
a 5 15 363
a 5 14 422
a 6 17 764
a 6 16 60
a 6 15 691
a 7 18 427
a 7 17 541
a 7 16 927
a 8 19 212
a 8 18 737
a 8 17 173
a 9 20 430
a 9 19 568
a 9 18 369
a 10 21 863
a 10 20 531
a 10 19 783
a 11 12 136
a 11 21 68
a 11 20 124
a 12 23 23
a 12 22 803
a 12 31 930
a 13 24 168
a 13 23 70
a 13 22 59
a 14 25 12
a 14 24 457
a 14 23 394
a 15 26 374
a 15 25 230
a 15 24 43
a 16 27 785
a 16 26 920
a 16 25 422
a 17 28 325
a 17 27 199
a 17 26 538
a 18 29 414
a 18 28 371
a 18 27 316
a 19 30 981
a 19 29 92
a 19 28 527
a 20 31 863
a 20 30 874
a 20 29 957
a 21 22 282
a 21 31 997
a 21 30 171
a 22 33 85
a 22 32 926
a 22 41 306
a 23 34 506
a 23 33 337
a 23 32 328
a 24 35 314
a 24 34 730
a 24 33 847
a 25 36 896
a 25 35 125
a 25 34 858
a 26 37 815
a 26 36 546
a 26 35 583
a 27 38 365
a 27 37 435
a 27 36 368
a 28 39 88
a 28 38 751
a 28 37 44
a 29 40 179
a 29 39 277
a 29 38 809
a 30 41 404
a 30 40 585
a 30 39 789
a 31 32 400
a 31 41 755
a 31 40 652
a 32 43 677
a 32 42 61
a 32 51 933
a 33 44 13
a 33 43 740
a 33 42 369
a 34 45 95
a 34 44 587
a 34 43 227
a 35 46 571
a 35 45 796
a 35 44 540
a 36 47 468
a 36 46 379
a 36 45 435
a 37 48 903
a 37 47 98
a 37 46 602
a 38 49 653
a 38 48 493
a 38 47 318
a 39 50 281
a 39 49 302
a 39 48 757
a 40 51 866
a 40 50 442
a 40 49 287
a 41 42 620
a 41 51 445
a 41 50 690
a 42 53 32
a 42 52 730
a 42 61 441
a 43 54 772
a 43 53 98
a 43 52 118
a 44 55 710
a 44 54 676
a 44 53 482
a 45 56 857
a 45 55 568
a 45 54 928
a 46 57 587
a 46 56 354
a 46 55 498
a 47 58 684
a 47 57 307
a 47 56 966
a 48 59 529
a 48 58 625
a 48 57 220
a 49 60 830
a 49 59 733
a 49 58 872
a 50 61 271
a 50 60 20
a 50 59 504
a 51 52 716
a 51 61 709
a 51 60 369
a 52 63 797
a 52 62 150
a 52 71 341
a 53 64 246
a 53 63 619
a 53 62 724
a 54 65 922
a 54 64 452
a 54 63 847
a 55 66 489
a 55 65 380
a 55 64 556
a 56 67 842
a 56 66 229
a 56 65 765
a 57 68 501
a 57 67 194
a 57 66 351
a 58 69 125
a 58 68 765
a 58 67 35
a 59 70 857
a 59 69 988
a 59 68 915
a 60 71 228
a 60 70 492
a 60 69 744
a 61 62 937
a 61 71 860
a 61 70 366
a 62 73 438
a 62 72 552
a 62 81 433
a 63 74 408
a 63 73 276
a 63 72 229
a 64 75 859
a 64 74 122
a 64 73 475
a 65 76 238
a 65 75 30
a 65 74 396
a 66 77 819
a 66 76 794
a 66 75 236
a 67 78 12
a 67 77 144
a 67 76 429
a 68 79 777
a 68 78 530
a 68 77 929
a 69 80 764
a 69 79 444
a 69 78 405
a 70 81 607
a 70 80 539
a 70 79 614
a 71 72 819
a 71 81 905
a 71 80 841
a 72 83 370
a 72 82 689
a 72 91 129
a 73 84 997
a 73 83 918
a 73 82 918
a 74 85 471
a 74 84 744
a 74 83 325
a 75 86 500
a 75 85 491
a 75 84 184
a 76 87 645
a 76 86 726
a 76 85 773
a 77 88 140
a 77 87 506
a 77 86 591
a 78 89 670
a 78 88 787
a 78 87 955
a 79 90 465
a 79 89 543
a 79 88 83
a 80 91 356
a 80 90 508
a 80 89 198
a 81 82 612
a 81 91 349
a 81 90 805
a 82 93 300
a 82 92 829
a 82 101 623
a 83 94 569
a 83 93 747
a 83 92 344
a 84 95 312
a 84 94 423
a 84 93 341
a 85 96 802
a 85 95 606
a 85 94 811
a 86 97 879
a 86 96 731
a 86 95 662
a 87 98 737
a 87 97 321
a 87 96 306
a 88 99 523
a 88 98 627
a 88 97 445
a 89 100 417
a 89 99 709
a 89 98 466
a 90 101 925
a 90 100 259
a 90 99 283
a 91 92 625
a 91 101 63
a 91 100 638
a 92 102 3000
a 93 102 3000
a 94 102 3000
a 95 102 3000
a 96 102 3000
a 97 102 3000
a 98 102 3000
a 99 102 3000
a 100 102 3000
a 101 102 3000
